Data path: /scratch/opt/lxu/CFLG/benchmarks/city
Instance: city_479.txt
Result path: /scratch/opt/lxu/CFLG/results/city
Solver: Gurobi
Time limit: 7200
Formulation: LEFPAI
Cover: Small
julia --project=. src/main.jl /scratch/opt/lxu/CFLG/benchmarks/city city_479.txt /scratch/opt/lxu/CFLG/results/city Gurobi 7200 LEFPAI Small
The latest version of Julia in the `release` channel is 1.11.5+0.x64.linux.gnu. You currently have `1.11.4+0.x64.linux.gnu` installed. Run:

  juliaup update

in your terminal shell to install Julia 1.11.5+0.x64.linux.gnu and update the `release` channel to that version.
/scratch/opt/lxu/CFLG/benchmarks/city Gurobi 7200.0 /scratch/opt/lxu/CFLG/results/city city_479.txt LEFPAI Small
/scratch/opt/lxu/CFLG/benchmarks/city/city_479.txt

 read graph
data loaded


after absorb:310 374

max_piece:76
problem_graph/original graph: node: 368/374 edge: 473/479 dlt: 0.040567567689340535 break_avg_len: 0.1643286674265885 break_max_len: 3.033657483813635Vbar/V, Ebar/E(284, 368, 389, 473)
Set parameter TokenServer to value "solice01.zib.de"
Set parameter Threads to value 1
Set parameter OutputFlag to value 1
Gurobi Optimizer version 12.0.1 build v12.0.1rc0 (linux64 - "Debian GNU/Linux 12 (bookworm)")

CPU model: Intel(R) Xeon(R) Gold 5122 CPU @ 3.60GHz, instruction set [SSE2|AVX|AVX2|AVX512]
Thread count: 8 physical cores, 16 logical processors, using up to 1 threads

Non-default parameters:
Threads  1

Optimize a model with 785 rows, 1335 columns and 2225 nonzeros
Model fingerprint: 0xea3b8735
Coefficient statistics:
  Matrix range     [1e+00, 1e+00]
  Objective range  [1e+00, 1e+00]
  Bounds range     [1e+00, 1e+00]
  RHS range        [1e+00, 1e+00]
Presolve removed 785 rows and 1335 columns
Presolve time: 0.00s
Presolve: All rows and columns removed
Iteration    Objective       Primal Inf.    Dual Inf.      Time
       0    5.6000000e+01   0.000000e+00   0.000000e+00      0s

Solved in 0 iterations and 0.00 seconds (0.00 work units)
Optimal objective  5.600000000e+01

User-callback calls 35, time in user-callback 0.00 sec
elapsed CPU time: 1.482117 seconds
Set parameter TokenServer to value "solice01.zib.de"
Set parameter Threads to value 1
Set parameter OutputFlag to value 1
Set parameter MIPGap to value 0.0001
Set parameter MIPGapAbs to value 0.999998
Set parameter TimeLimit to value 7198.517883

 more cuts: false 0.040567567689340535 false
is_attach:trueformulation:LEFPAI0 445 0

 model loaded

Gurobi Optimizer version 12.0.1 build v12.0.1rc0 (linux64 - "Debian GNU/Linux 12 (bookworm)")

CPU model: Intel(R) Xeon(R) Gold 5122 CPU @ 3.60GHz, instruction set [SSE2|AVX|AVX2|AVX512]
Thread count: 8 physical cores, 16 logical processors, using up to 1 threads

Non-default parameters:
TimeLimit  7198.517883
MIPGapAbs  0.999998
Threads  1

Optimize a model with 3987 rows, 4483 columns and 9666 nonzeros
Model fingerprint: 0x55b71f4d
Model has 2023 simple general constraints
  2023 INDICATOR
Variable types: 1230 continuous, 3253 integer (3253 binary)
Coefficient statistics:
  Matrix range     [2e-04, 3e+00]
  Objective range  [1e+00, 1e+00]
  Bounds range     [2e-04, 3e+00]
  RHS range        [1e-06, 3e+00]
  GenCon rhs range [4e-08, 3e+00]
  GenCon coe range [1e+00, 1e+00]
Presolve removed 3750 rows and 4276 columns
Presolve time: 0.08s
Presolved: 237 rows, 207 columns, 999 nonzeros
Variable types: 52 continuous, 155 integer (155 binary)
Found heuristic solution: objective 465.0000000
Found heuristic solution: objective 464.0000000
Found heuristic solution: objective 463.0000000

Root relaxation: objective 4.404454e+02, 189 iterations, 0.00 seconds (0.00 work units)

    Nodes    |    Current Node    |     Objective Bounds      |     Work
 Expl Unexpl |  Obj  Depth IntInf | Incumbent    BestBd   Gap | It/Node Time

     0     0  440.44539    0   45  463.00000  440.44539  4.87%     -    0s
H    0     0                     462.0000000  440.44539  4.67%     -    0s
H    0     0                     454.0000000  440.44539  2.99%     -    0s
H    0     0                     451.0000000  440.44539  2.34%     -    0s
     0     0  441.83976    0   47  451.00000  441.83976  2.03%     -    0s
H    0     0                     450.0000000  441.88318  1.80%     -    0s
H    0     0                     445.0000000  441.88318  0.70%     -    0s
     0     0  442.12004    0   61  445.00000  442.12004  0.65%     -    0s
     0     0  442.18639    0   50  445.00000  442.18639  0.63%     -    0s
     0     0  442.18640    0   51  445.00000  442.18640  0.63%     -    0s
     0     0  442.29486    0   53  445.00000  442.29486  0.61%     -    0s
     0     0  442.33509    0   53  445.00000  442.33509  0.60%     -    0s
     0     0  442.33509    0   54  445.00000  442.33509  0.60%     -    0s
     0     0  442.50000    0   35  445.00000  442.50000  0.56%     -    0s
     0     0  442.73333    0   35  445.00000  442.73333  0.51%     -    0s
     0     0  442.73333    0   29  445.00000  442.73333  0.51%     -    0s
     0     2  442.73333    0   27  445.00000  442.73333  0.51%     -    0s
H   27     3                     444.0000000  443.00000  0.23%  11.2    0s

Cutting planes:
  Learned: 1
  Gomory: 1
  Cover: 17
  Implied bound: 1
  Clique: 2
  MIR: 7
  StrongCG: 2
  Flow cover: 1
  GUB cover: 5
  RLT: 5
  Relax-and-lift: 4

Explored 31 nodes (966 simplex iterations) in 0.18 seconds (0.09 work units)
Thread count was 1 (of 16 available processors)

Solution count 9: 444 445 450 ... 465

Optimal solution found (tolerance 1.00e-04)
Warning: max constraint violation (1.0000e-06) exceeds tolerance
Warning: max general constraint violation (1.0000e-06) exceeds tolerance
Best objective 4.440000000000e+02, best bound 4.440000000000e+02, gap 0.0000%

User-callback calls 2593, time in user-callback 0.00 sec

 sepatime0 0 0
444.0Stat(MathOptInterface.OPTIMAL, 444.0, 444.0, 0.0, 0.0, 1.482117, 0.18201398849487305, 31, Main.CFLG.LEFPAI, "", #undef)
